Geographic Exponential Decay
80 52 265 219 168 284 104 126 192 136 4 170 199 145 73 118 286 160 36 112 204 109 179 178 132 64 24 184 70 127 164 275 303 20 68 133 48 293 31 91 291 189 90 195 15 217 241 259 295 169 134 166 251 234 72 86 255 128 99 59 274 172 157 277 25 283 171 140 110 79 302 143 102 175 155 80 280 230 9 13 45
p edge 320 1347
e 0 91 65.0
e 1 111 4.0
e 2 269 7.0
e 2 297 4.0
e 3 201 2.0
e 4 178 63.0
e 4 135 93.0
e 4 82 72.0
e 4 28 68.0
e 4 248 33.0
e 4 143 36.0
e 4 271 98.0
e 4 122 86.0
e 4 314 8.0
e 4 220 47.0
e 4 219 30.0
e 4 188 61.0
e 4 229 62.0
e 4 104 93.0
e 4 48 16.0
e 4 156 18.0
e 4 215 95.0
e 5 172 97.0
e 6 269 5.0
e 7 57 3.0
e 7 118 63.0
e 7 231 1.0
e 8 119 1.0
e 8 170 99.0
e 9 71 54.0
e 9 25 96.0
e 9 172 83.0
e 9 22 29.0
e 9 106 61.0
e 9 158 64.0
e 9 227 73.0
e 9 249 90.0
e 9 163 57.0
e 9 251 67.0
e 9 174 88.0
e 9 91 27.0
e 9 140 32.0
e 9 48 53.0
e 9 62 88.0
e 9 69 32.0
e 9 252 67.0
e 10 154 9.0
e 11 147 15.0
e 11 1 17.0
e 11 53 18.0
e 11 220 3.0
e 11 169 59.0
e 12 225 2.0
e 13 7 71.0
e 13 73 71.0
e 13 4 58.0
e 13 81 28.0
e 13 271 91.0
e 13 129 99.0
e 13 238 18.0
e 13 286 84.0
e 13 68 66.0
e 13 5 36.0
e 13 12 54.0
e 13 64 96.0
e 13 297 35.0
e 13 247 40.0
e 13 99 4.0
e 13 88 25.0
e 13 74 3.0
e 14 100 2.0
e 14 281 21.0
e 14 57 20.0
e 14 306 10.0
e 14 93 5.0
e 15 5 16.0
e 15 170 2.0
e 15 133 90.0
e 15 23 13.0
e 15 179 42.0
e 15 162 18.0
e 15 281 90.0
e 15 219 12.0
e 15 137 58.0
e 15 109 9.0
e 15 264 54.0
e 15 167 39.0
e 15 70 49.0
e 15 151 10.0
e 15 85 12.0
e 15 3 84.0
e 15 315 1.0
e 16 144 1.0
e 17 50 9.0
e 17 279 7.0
e 17 57 8.0
e 18 133 31.0
e 19 47 1.0
e 20 305 51.0
e 20 95 25.0
e 20 223 67.0
e 20 307 34.0
e 20 159 82.0
e 20 180 38.0
e 20 97 36.0
e 20 80 69.0
e 20 196 37.0
e 20 66 85.0
e 20 99 43.0
e 20 293 23.0
e 20 251 18.0
e 20 148 17.0
e 20 69 94.0
e 20 240 84.0
e 20 4 93.0
e 21 13 87.0
e 22 250 10.0
e 22 15 73.0
e 23 14 16.0
e 23 264 8.0
e 24 25 54.0
e 24 111 12.0
e 24 169 27.0
e 24 186 5.0
e 24 288 39.0
e 24 100 28.0
e 24 155 14.0
e 24 294 78.0
e 24 262 11.0
e 24 307 88.0
e 24 16 10.0
e 24 92 8.0
e 24 144 51.0
e 24 175 100.0
e 24 205 49.0
e 24 281 81.0
e 24 217 77.0
e 25 161 96.0
e 25 50 40.0
e 25 12 11.0
e 25 11 12.0
e 25 4 52.0
e 25 284 13.0
e 25 2 6.0
e 25 69 88.0
e 25 228 21.0
e 25 300 18.0
e 25 108 31.0
e 25 85 98.0
e 25 150 6.0
e 25 8 89.0
e 25 137 63.0
e 26 161 3.0
e 27 48 68.0
e 29 33 5.0
e 29 126 43.0
e 30 202 4.0
e 30 13 100.0
e 31 91 10.0
e 31 130 74.0
e 31 48 40.0
e 31 43 3.0
e 31 111 41.0
e 31 92 99.0
e 31 51 26.0
e 31 178 56.0
e 31 292 70.0
e 31 245 30.0
e 31 11 1.0
e 31 153 40.0
e 31 83 57.0
e 31 0 90.0
e 31 297 59.0
e 31 196 73.0
e 31 180 15.0
e 32 172 60.0
e 32 46 4.0
e 34 275 88.0
e 34 195 23.0
e 34 199 89.0
e 34 260 8.0
e 34 153 24.0
e 35 212 8.0
e 35 145 15.0
e 35 265 40.0
e 36 114 34.0
e 36 287 85.0
e 36 141 93.0
e 36 318 32.0
e 36 289 93.0
e 36 105 14.0
e 36 188 92.0
e 36 125 94.0
e 36 89 85.0
e 36 210 16.0
e 36 6 48.0
e 36 57 97.0
e 36 73 87.0
e 36 30 26.0
e 36 243 69.0
e 36 297 55.0
e 36 10 79.0
e 37 226 6.0
e 37 175 33.0
e 38 58 5.0
e 39 240 10.0
e 40 241 20.0
e 41 291 60.0
e 41 102 63.0
e 42 155 80.0
e 44 136 52.0
e 45 84 47.0
e 45 151 42.0
e 45 137 28.0
e 45 119 82.0
e 45 218 45.0
e 45 97 28.0
e 45 219 46.0
e 45 40 92.0
e 45 48 88.0
e 45 262 83.0
e 45 240 76.0
e 45 17 29.0
e 45 67 100.0
e 45 309 54.0
e 45 32 32.0
e 45 65 73.0
e 45 317 92.0
e 46 236 4.0
e 47 211 4.0
e 48 43 93.0
e 48 95 54.0
e 48 167 8.0
e 48 155 34.0
e 48 132 82.0
e 48 56 10.0
e 48 241 7.0
e 48 30 10.0
e 48 197 8.0
e 48 263 78.0
e 48 135 30.0
e 48 136 41.0
e 49 67 2.0
e 49 317 1.0
e 52 31 3.0
e 52 202 73.0
e 52 41 94.0
e 52 216 41.0
e 52 46 43.0
e 52 244 63.0
e 52 226 82.0
e 52 185 24.0
e 52 53 32.0
e 52 188 63.0
e 52 71 31.0
e 52 251 4.0
e 52 308 61.0
e 52 295 41.0
e 52 89 61.0
e 52 252 29.0
e 52 54 62.0
e 54 161 5.0
e 54 249 11.0
e 55 89 1.0
e 56 263 2.0
e 58 263 4.0
e 59 290 28.0
e 59 121 76.0
e 59 76 60.0
e 59 159 46.0
e 59 250 30.0
e 59 12 4.0
e 59 125 26.0
e 59 21 11.0
e 59 268 82.0
e 59 171 75.0
e 59 153 7.0
e 59 1 73.0
e 59 145 49.0
e 59 10 34.0
e 59 239 52.0
e 59 122 79.0
e 59 49 4.0
e 60 146 4.0
e 60 292 15.0
e 61 41 2.0
e 63 308 23.0
e 63 113 2.0
e 63 176 9.0
e 64 215 90.0
e 64 182 93.0
e 64 43 84.0
e 64 117 81.0
e 64 165 67.0
e 64 0 79.0
e 64 102 91.0
e 64 206 65.0
e 64 229 6.0
e 64 311 29.0
e 64 115 65.0
e 64 226 24.0
e 64 166 37.0
e 64 188 45.0
e 64 79 17.0
e 64 162 52.0
e 68 307 19.0
e 68 14 35.0
e 68 231 86.0
e 68 9 7.0
e 68 179 97.0
e 68 150 44.0
e 68 108 89.0
e 68 253 68.0
e 68 151 42.0
e 68 107 70.0
e 68 37 58.0
e 68 126 43.0
e 68 271 35.0
e 68 211 98.0
e 68 250 71.0
e 68 148 44.0
e 69 166 76.0
e 69 283 29.0
e 70 279 4.0
e 70 151 35.0
e 70 214 37.0
e 70 147 36.0
e 70 87 60.0
e 70 13 87.0
e 70 143 48.0
e 70 43 98.0
e 70 174 5.0
e 70 249 29.0
e 70 192 66.0
e 70 144 94.0
e 70 55 1.0
e 70 127 40.0
e 70 236 91.0
e 70 149 90.0
e 72 85 43.0
e 72 41 12.0
e 72 315 37.0
e 72 274 92.0
e 72 266 87.0
e 72 50 36.0
e 72 214 5.0
e 72 171 75.0
e 72 80 33.0
e 72 122 65.0
e 72 316 44.0
e 72 84 82.0
e 72 281 61.0
e 72 8 84.0
e 72 198 42.0
e 72 52 85.0
e 72 106 21.0
e 73 15 92.0
e 73 236 77.0
e 73 154 18.0
e 73 37 68.0
e 73 24 30.0
e 73 295 31.0
e 73 90 99.0
e 73 277 15.0
e 73 155 54.0
e 73 68 83.0
e 73 175 95.0
e 73 95 51.0
e 73 278 30.0
e 73 10 62.0
e 73 57 8.0
e 75 125 3.0
e 77 209 1.0
e 78 219 23.0
e 78 315 9.0
e 78 262 23.0
e 78 225 14.0
e 78 129 3.0
e 79 27 8.0
e 79 318 49.0
e 79 172 82.0
e 79 140 86.0
e 79 151 70.0
e 79 146 31.0
e 79 179 21.0
e 79 66 83.0
e 79 210 23.0
e 79 209 45.0
e 79 132 3.0
e 79 266 98.0
e 79 14 26.0
e 79 126 91.0
e 79 258 27.0
e 79 197 83.0
e 80 262 83.0
e 80 66 28.0
e 80 302 4.0
e 80 17 19.0
e 80 106 93.0
e 80 268 91.0
e 80 2 14.0
e 80 94 23.0
e 80 297 6.0
e 80 139 67.0
e 80 81 54.0
e 80 73 22.0
e 80 285 56.0
e 80 152 58.0
e 80 269 72.0
e 82 306 3.0
e 82 151 48.0
e 82 18 14.0
e 82 289 14.0
e 83 163 10.0
e 83 207 8.0
e 86 141 51.0
e 86 109 37.0
e 86 132 56.0
e 86 104 97.0
e 86 264 57.0
e 86 85 81.0
e 86 11 38.0
e 86 83 63.0
e 86 36 16.0
e 86 71 14.0
e 86 93 41.0
e 86 192 30.0
e 86 80 43.0
e 86 287 41.0
e 86 39 24.0
e 86 301 54.0
e 86 117 89.0
e 87 34 17.0
e 88 105 15.0
e 88 48 55.0
e 88 99 74.0
e 88 19 24.0
e 90 314 82.0
e 90 27 8.0
e 90 113 96.0
e 90 315 80.0
e 90 44 59.0
e 90 284 49.0
e 90 278 50.0
e 90 33 80.0
e 90 104 28.0
e 90 91 87.0
e 90 204 83.0
e 90 71 68.0
e 90 154 5.0
e 90 243 55.0
e 90 0 1.0
e 90 120 13.0
e 91 198 12.0
e 91 92 62.0
e 91 140 81.0
e 91 109 27.0
e 91 298 71.0
e 91 127 30.0
e 91 167 24.0
e 91 103 37.0
e 91 86 86.0
e 91 54 43.0
e 91 305 21.0
e 91 58 68.0
e 91 227 96.0
e 94 74 3.0
e 96 81 1.0
e 96 63 5.0
e 98 44 6.0
e 98 292 21.0
e 99 5 67.0
e 99 161 90.0
e 99 257 4.0
e 99 254 60.0
e 99 162 90.0
e 99 314 61.0
e 99 136 94.0
e 99 165 24.0
e 99 190 95.0
e 99 77 51.0
e 99 15 88.0
e 99 101 9.0
e 99 55 44.0
e 99 78 65.0
e 100 265 44.0
e 101 91 93.0
e 101 60 9.0
e 102 18 100.0
e 102 267 72.0
e 102 259 5.0
e 102 42 71.0
e 102 290 57.0
e 102 176 49.0
e 102 2 100.0
e 102 16 84.0
e 102 104 32.0
e 102 81 84.0
e 102 220 28.0
e 102 153 15.0
e 102 231 18.0
e 102 49 14.0
e 102 227 70.0
e 103 197 4.0
e 104 261 23.0
e 104 244 78.0
e 104 83 63.0
e 104 73 68.0
e 104 304 96.0
e 104 74 6.0
e 104 284 2.0
e 104 6 17.0
e 104 42 29.0
e 104 220 13.0
e 104 135 12.0
e 104 62 25.0
e 104 174 24.0
e 107 136 48.0
e 108 162 24.0
e 108 283 82.0
e 108 236 7.0
e 109 77 100.0
e 109 245 22.0
e 109 237 36.0
e 109 116 4.0
e 109 30 20.0
e 109 235 16.0
e 109 18 54.0
e 109 209 81.0
e 109 19 89.0
e 109 228 79.0
e 109 131 89.0
e 109 312 36.0
e 109 31 38.0
e 109 274 38.0
e 110 223 74.0
e 110 317 39.0
e 110 42 76.0
e 110 230 18.0
e 110 146 35.0
e 110 137 52.0
e 110 61 13.0
e 110 44 97.0
e 110 219 15.0
e 110 164 40.0
e 110 28 82.0
e 110 47 90.0
e 110 142 96.0
e 110 152 79.0
e 110 170 88.0
e 110 63 65.0
e 110 53 87.0
e 112 68 37.0
e 112 128 95.0
e 112 226 99.0
e 112 77 82.0
e 112 259 54.0
e 112 37 97.0
e 112 69 18.0
e 112 181 16.0
e 112 26 62.0
e 112 59 5.0
e 112 67 11.0
e 112 157 93.0
e 112 251 10.0
e 112 90 57.0
e 112 209 97.0
e 112 180 60.0
e 112 78 14.0
e 113 16 10.0
e 115 146 1.0
e 116 34 7.0
e 116 196 15.0
e 116 122 16.0
e 116 67 14.0
e 117 197 18.0
e 117 222 12.0
e 117 316 9.0
e 118 176 41.0
e 118 264 4.0
e 118 82 14.0
e 118 300 70.0
e 118 38 69.0
e 118 138 79.0
e 118 181 11.0
e 118 78 79.0
e 118 239 83.0
e 118 294 71.0
e 118 130 65.0
e 118 230 99.0
e 118 135 10.0
e 118 243 42.0
e 118 221 52.0
e 118 8 16.0
e 123 187 6.0
e 123 296 1.0
e 123 101 2.0
e 124 46 4.0
e 124 17 1.0
e 126 151 39.0
e 126 269 27.0
e 126 80 11.0
e 126 53 30.0
e 126 198 99.0
e 126 245 93.0
e 126 28 47.0
e 126 117 93.0
e 126 203 12.0
e 126 244 57.0
e 126 230 35.0
e 126 3 78.0
e 126 246 97.0
e 126 165 44.0
e 127 316 79.0
e 127 114 13.0
e 127 86 20.0
e 127 96 4.0
e 127 157 51.0
e 127 280 43.0
e 127 243 55.0
e 127 19 91.0
e 127 305 99.0
e 127 72 27.0
e 127 120 54.0
e 127 294 51.0
e 127 73 11.0
e 127 129 91.0
e 127 317 83.0
e 128 278 64.0
e 128 263 33.0
e 128 166 28.0
e 128 171 60.0
e 128 193 20.0
e 128 9 1.0
e 128 84 98.0
e 128 118 4.0
e 128 252 1.0
e 128 290 33.0
e 128 45 30.0
e 128 188 53.0
e 128 316 64.0
e 128 215 55.0
e 128 95 51.0
e 128 70 20.0
e 130 64 90.0
e 131 191 5.0
e 131 132 1.0
e 131 115 23.0
e 131 311 1.0
e 132 317 56.0
e 132 21 41.0
e 132 271 73.0
e 132 92 12.0
e 132 66 77.0
e 132 306 69.0
e 132 161 37.0
e 132 127 47.0
e 132 312 81.0
e 132 224 28.0
e 132 83 36.0
e 132 303 82.0
e 132 175 49.0
e 133 74 70.0
e 133 211 11.0
e 133 55 12.0
e 133 183 60.0
e 133 306 83.0
e 133 260 99.0
e 133 189 21.0
e 133 54 17.0
e 133 221 77.0
e 133 97 36.0
e 133 261 23.0
e 133 287 42.0
e 133 98 40.0
e 133 218 43.0
e 133 105 72.0
e 134 177 49.0
e 134 254 20.0
e 134 54 1.0
e 134 166 44.0
e 134 156 75.0
e 134 154 94.0
e 134 175 55.0
e 134 203 58.0
e 134 287 26.0
e 134 129 79.0
e 134 215 96.0
e 134 266 59.0
e 134 298 61.0
e 134 172 65.0
e 134 131 13.0
e 134 174 29.0
e 134 258 46.0
e 136 170 83.0
e 136 185 21.0
e 136 51 82.0
e 136 143 30.0
e 136 7 23.0
e 136 194 76.0
e 136 56 49.0
e 136 36 36.0
e 136 123 64.0
e 136 158 22.0
e 136 186 23.0
e 136 6 21.0
e 136 60 77.0
e 138 154 9.0
e 138 301 2.0
e 139 189 38.0
e 139 9 27.0
e 140 273 34.0
e 140 133 98.0
e 140 107 51.0
e 140 82 78.0
e 140 72 18.0
e 140 56 95.0
e 140 75 8.0
e 140 247 46.0
e 140 166 57.0
e 140 203 18.0
e 140 3 42.0
e 140 84 51.0
e 140 92 73.0
e 140 265 38.0
e 143 307 47.0
e 143 171 65.0
e 143 196 26.0
e 143 249 18.0
e 143 164 61.0
e 143 110 38.0
e 143 268 24.0
e 143 38 82.0
e 143 56 54.0
e 143 29 57.0
e 143 144 34.0
e 143 20 6.0
e 143 72 10.0
e 143 277 77.0
e 145 268 61.0
e 145 292 48.0
e 145 234 44.0
e 145 238 10.0
e 145 179 62.0
e 145 50 34.0
e 145 202 75.0
e 145 103 53.0
e 145 193 83.0
e 145 31 42.0
e 145 262 5.0
e 145 23 62.0
e 145 137 99.0
e 145 86 79.0
e 145 96 22.0
e 148 182 11.0
e 151 290 34.0
e 151 198 38.0
e 155 94 78.0
e 155 201 53.0
e 155 25 89.0
e 155 214 58.0
e 155 167 8.0
e 155 282 27.0
e 155 291 23.0
e 155 47 87.0
e 155 312 66.0
e 155 27 15.0
e 155 87 56.0
e 155 108 7.0
e 155 113 58.0
e 156 273 2.0
e 157 251 87.0
e 157 201 32.0
e 157 40 96.0
e 157 75 75.0
e 157 87 73.0
e 157 298 72.0
e 157 299 14.0
e 157 273 51.0
e 157 34 22.0
e 157 108 67.0
e 157 244 87.0
e 157 88 21.0
e 157 125 6.0
e 157 173 28.0
e 157 260 7.0
e 158 129 7.0
e 160 91 57.0
e 160 88 47.0
e 160 166 44.0
e 160 124 31.0
e 160 292 36.0
e 160 269 29.0
e 160 303 68.0
e 160 116 8.0
e 160 168 11.0
e 160 20 12.0
e 160 21 73.0
e 160 79 62.0
e 160 87 71.0
e 160 274 18.0
e 160 311 82.0
e 160 58 45.0
e 160 286 90.0
e 164 52 67.0
e 164 133 50.0
e 164 23 55.0
e 164 125 77.0
e 164 311 99.0
e 164 126 25.0
e 164 141 1.0
e 164 45 5.0
e 164 128 34.0
e 164 89 95.0
e 164 35 75.0
e 164 68 11.0
e 164 248 95.0
e 164 90 98.0
e 164 288 46.0
e 166 202 43.0
e 166 29 12.0
e 166 24 7.0
e 166 262 99.0
e 166 170 16.0
e 166 70 98.0
e 166 239 54.0
e 166 112 64.0
e 166 193 16.0
e 166 126 12.0
e 166 102 5.0
e 168 276 41.0
e 168 203 1.0
e 168 231 27.0
e 168 266 65.0
e 168 205 18.0
e 168 75 11.0
e 168 1 70.0
e 168 97 21.0
e 168 267 62.0
e 168 294 2.0
e 168 20 97.0
e 168 164 61.0
e 168 258 18.0
e 168 305 7.0
e 168 177 74.0
e 168 116 12.0
e 169 214 81.0
e 169 171 78.0
e 169 282 5.0
e 169 69 16.0
e 169 151 15.0
e 169 228 58.0
e 169 221 44.0
e 169 158 4.0
e 169 302 53.0
e 169 276 70.0
e 169 269 96.0
e 169 7 51.0
e 169 263 83.0
e 169 237 49.0
e 169 304 97.0
e 170 102 86.0
e 170 76 77.0
e 170 58 78.0
e 170 189 65.0
e 170 38 88.0
e 170 141 38.0
e 170 214 38.0
e 170 96 71.0
e 170 22 54.0
e 170 204 68.0
e 170 307 78.0
e 170 88 93.0
e 171 312 31.0
e 171 22 59.0
e 171 291 57.0
e 171 23 4.0
e 171 241 63.0
e 171 106 44.0
e 171 94 38.0
e 171 280 86.0
e 171 298 85.0
e 171 124 89.0
e 171 159 73.0
e 171 108 23.0
e 172 309 81.0
e 172 242 40.0
e 172 116 13.0
e 172 282 33.0
e 172 192 89.0
e 172 226 35.0
e 172 59 91.0
e 172 45 18.0
e 172 150 54.0
e 172 310 52.0
e 172 313 16.0
e 172 241 45.0
e 175 204 52.0
e 175 170 97.0
e 175 90 40.0
e 175 195 62.0
e 175 171 100.0
e 175 104 84.0
e 175 161 23.0
e 175 273 53.0
e 175 126 61.0
e 175 147 68.0
e 175 282 38.0
e 175 205 39.0
e 178 305 79.0
e 178 250 100.0
e 178 186 75.0
e 178 139 72.0
e 178 295 77.0
e 178 22 86.0
e 178 222 78.0
e 178 62 63.0
e 178 76 13.0
e 178 261 20.0
e 178 162 96.0
e 178 36 13.0
e 178 218 12.0
e 178 289 1.0
e 178 210 30.0
e 179 198 38.0
e 179 29 76.0
e 179 288 98.0
e 179 176 81.0
e 179 59 75.0
e 179 61 22.0
e 179 91 80.0
e 179 69 90.0
e 179 292 77.0
e 179 274 31.0
e 179 80 65.0
e 179 192 25.0
e 179 24 67.0
e 183 265 77.0
e 184 39 9.0
e 184 247 88.0
e 184 292 1.0
e 184 243 18.0
e 184 25 27.0
e 184 211 33.0
e 184 155 96.0
e 184 145 71.0
e 184 172 28.0
e 184 79 77.0
e 184 60 56.0
e 184 227 2.0
e 184 293 55.0
e 184 291 9.0
e 184 166 57.0
e 184 272 38.0
e 184 26 79.0
e 187 61 1.0
e 189 76 38.0
e 189 64 24.0
e 189 234 57.0
e 189 70 1.0
e 189 165 35.0
e 189 168 38.0
e 189 190 12.0
e 189 256 1.0
e 189 107 99.0
e 189 184 16.0
e 189 199 43.0
e 189 25 65.0
e 189 46 49.0
e 189 79 76.0
e 191 156 11.0
e 192 62 48.0
e 192 98 58.0
e 192 313 8.0
e 192 109 8.0
e 192 222 79.0
e 192 168 6.0
e 192 275 15.0
e 192 123 47.0
e 192 26 29.0
e 192 265 14.0
e 192 308 40.0
e 192 115 74.0
e 192 303 31.0
e 193 186 15.0
e 193 152 9.0
e 194 82 33.0
e 194 293 82.0
e 194 100 34.0
e 194 93 16.0
e 194 35 36.0
e 194 94 5.0
e 194 39 41.0
e 194 255 20.0
e 195 98 65.0
e 195 47 25.0
e 195 189 19.0
e 195 273 58.0
e 195 163 7.0
e 195 208 95.0
e 195 28 77.0
e 195 113 95.0
e 195 48 52.0
e 195 258 4.0
e 195 32 33.0
e 195 291 79.0
e 195 164 84.0
e 195 308 3.0
e 195 313 87.0
e 199 258 91.0
e 199 32 63.0
e 199 133 9.0
e 199 93 5.0
e 199 228 97.0
e 199 110 70.0
e 199 33 42.0
e 199 63 18.0
e 199 35 30.0
e 199 51 24.0
e 199 40 10.0
e 199 270 42.0
e 199 201 78.0
e 199 99 74.0
e 199 145 15.0
e 200 296 2.0
e 204 99 81.0
e 204 33 42.0
e 204 238 37.0
e 204 48 33.0
e 204 49 23.0
e 204 123 92.0
e 204 100 48.0
e 204 189 49.0
e 204 246 78.0
e 204 235 84.0
e 204 237 41.0
e 204 50 73.0
e 204 124 38.0
e 204 308 22.0
e 206 51 5.0
e 206 285 9.0
e 212 248 2.0
e 213 199 79.0
e 213 52 31.0
e 213 109 43.0
e 213 99 65.0
e 213 184 31.0
e 216 100 12.0
e 217 267 79.0
e 217 260 1.0
e 217 240 87.0
e 217 119 79.0
e 217 289 23.0
e 217 64 25.0
e 217 166 9.0
e 217 127 52.0
e 217 237 23.0
e 217 65 98.0
e 217 304 71.0
e 217 180 49.0
e 217 134 94.0
e 217 101 69.0
e 217 301 37.0
e 217 199 76.0
e 219 255 13.0
e 219 283 91.0
e 219 240 32.0
e 219 242 73.0
e 219 65 87.0
e 219 101 69.0
e 219 102 50.0
e 219 103 20.0
e 219 251 19.0
e 219 308 43.0
e 219 270 27.0
e 219 104 60.0
e 230 286 55.0
e 230 65 9.0
e 230 217 51.0
e 230 103 87.0
e 230 111 31.0
e 230 136 52.0
e 230 267 88.0
e 230 117 65.0
e 230 104 24.0
e 230 200 50.0
e 230 179 25.0
e 230 255 11.0
e 230 130 61.0
e 230 254 25.0
e 232 105 1.0
e 232 184 100.0
e 232 106 3.0
e 233 205 2.0
e 233 107 5.0
e 234 109 24.0
e 234 128 58.0
e 234 110 70.0
e 234 195 60.0
e 234 152 95.0
e 234 274 7.0
e 234 111 52.0
e 234 313 77.0
e 234 127 86.0
e 234 232 75.0
e 234 118 26.0
e 234 230 77.0
e 234 266 78.0
e 234 112 2.0
e 234 165 79.0
e 241 283 68.0
e 241 149 44.0
e 241 221 98.0
e 241 166 96.0
e 241 258 75.0
e 241 139 100.0
e 241 112 52.0
e 241 113 82.0
e 241 128 43.0
e 241 114 40.0
e 241 204 14.0
e 241 217 95.0
e 241 206 10.0
e 251 165 37.0
e 251 138 7.0
e 251 114 26.0
e 251 117 1.0
e 251 212 61.0
e 251 115 43.0
e 251 289 50.0
e 251 120 70.0
e 251 118 83.0
e 251 168 10.0
e 251 119 52.0
e 255 120 58.0
e 255 121 57.0
e 255 195 46.0
e 255 130 86.0
e 255 136 9.0
e 255 140 94.0
e 255 131 72.0
e 255 272 12.0
e 255 132 69.0
e 255 134 72.0
e 255 314 77.0
e 255 137 40.0
e 255 274 28.0
e 255 213 34.0
e 256 295 44.0
e 256 176 3.0
e 259 121 19.0
e 259 130 8.0
e 259 152 20.0
e 259 270 37.0
e 259 189 54.0
e 259 251 12.0
e 259 139 56.0
e 259 131 1.0
e 259 132 50.0
e 259 242 80.0
e 259 225 93.0
e 259 134 16.0
e 259 252 31.0
e 259 272 80.0
e 259 136 53.0
e 261 145 62.0
e 261 169 38.0
e 265 293 74.0
e 265 121 23.0
e 265 244 25.0
e 265 275 18.0
e 265 132 51.0
e 265 221 2.0
e 265 193 13.0
e 265 138 43.0
e 265 278 79.0
e 265 237 75.0
e 265 251 96.0
e 265 299 83.0
e 270 206 7.0
e 270 181 3.0
e 274 138 99.0
e 274 169 52.0
e 274 261 16.0
e 274 140 29.0
e 274 141 66.0
e 274 142 7.0
e 274 143 3.0
e 274 147 73.0
e 274 163 76.0
e 274 245 10.0
e 274 148 82.0
e 275 140 78.0
e 275 142 86.0
e 275 143 12.0
e 275 219 6.0
e 275 229 88.0
e 275 147 67.0
e 275 253 2.0
e 275 234 66.0
e 275 148 91.0
e 275 149 18.0
e 275 150 15.0
e 275 299 50.0
e 275 172 5.0
e 275 151 64.0
e 277 318 38.0
e 277 142 70.0
e 277 158 99.0
e 277 210 75.0
e 277 148 13.0
e 277 270 15.0
e 277 227 41.0
e 277 265 9.0
e 277 212 68.0
e 277 181 36.0
e 277 303 58.0
e 277 246 67.0
e 277 149 100.0
e 277 178 46.0
e 277 183 22.0
e 280 261 92.0
e 280 143 63.0
e 280 195 59.0
e 280 150 60.0
e 280 151 58.0
e 280 153 45.0
e 280 245 44.0
e 280 212 43.0
e 280 154 95.0
e 280 187 32.0
e 280 243 22.0
e 280 247 50.0
e 280 155 73.0
e 280 156 37.0
e 280 251 14.0
e 283 155 14.0
e 283 300 87.0
e 283 156 70.0
e 283 157 39.0
e 283 247 84.0
e 283 158 16.0
e 283 173 78.0
e 283 159 17.0
e 283 160 33.0
e 283 164 43.0
e 283 287 27.0
e 283 308 34.0
e 283 177 76.0
e 284 308 31.0
e 284 157 65.0
e 284 160 35.0
e 284 245 96.0
e 284 238 98.0
e 284 169 34.0
e 284 170 29.0
e 284 171 48.0
e 284 172 100.0
e 284 173 92.0
e 284 175 51.0
e 284 194 55.0
e 284 176 70.0
e 284 242 24.0
e 286 229 67.0
e 286 157 46.0
e 286 170 40.0
e 286 253 40.0
e 286 171 33.0
e 286 173 73.0
e 286 175 39.0
e 286 231 9.0
e 286 299 6.0
e 286 177 10.0
e 286 178 87.0
e 286 208 48.0
e 286 199 3.0
e 286 277 47.0
e 291 175 87.0
e 291 160 82.0
e 291 265 1.0
e 291 178 14.0
e 291 185 41.0
e 291 272 100.0
e 291 179 92.0
e 291 235 11.0
e 291 300 21.0
e 291 280 11.0
e 291 181 76.0
e 291 304 41.0
e 293 309 97.0
e 293 318 84.0
e 293 179 60.0
e 293 182 70.0
e 293 213 51.0
e 293 183 85.0
e 293 256 83.0
e 293 291 22.0
e 293 185 42.0
e 293 187 63.0
e 293 248 64.0
e 293 190 24.0
e 293 191 48.0
e 295 182 27.0
e 295 183 35.0
e 295 185 47.0
e 295 314 12.0
e 295 223 4.0
e 295 187 96.0
e 295 301 22.0
e 295 265 22.0
e 295 190 81.0
e 295 191 97.0
e 295 192 93.0
e 295 275 1.0
e 295 193 2.0
e 302 191 21.0
e 302 192 15.0
e 302 291 85.0
e 302 193 14.0
e 302 194 75.0
e 302 196 14.0
e 302 200 62.0
e 302 204 27.0
e 302 270 72.0
e 302 206 37.0
e 302 207 67.0
e 302 208 38.0
e 302 213 35.0
e 302 243 99.0
e 302 214 91.0
e 303 194 64.0
e 303 230 79.0
e 303 310 56.0
e 303 214 55.0
e 303 196 67.0
e 303 200 86.0
e 303 248 75.0
e 303 204 33.0
e 303 305 37.0
e 303 207 61.0
e 303 208 15.0
e 303 216 83.0
e 303 291 30.0
e 310 192 19.0
e 310 207 19.0
e 310 276 2.0
e 319 214 9.0
